
Gurobi 7.0.1 (win64, Python) logging started 11/12/16 20:00:57

Optimize a model with 63 rows, 95 columns and 208 nonzeros
Coefficient statistics:
  Matrix range     [7e-02, 6e+01]
  Objective range  [0e+00, 0e+00]
  Bounds range     [0e+00, 0e+00]
  RHS range        [1e+00, 1e+00]
Presolve removed 63 rows and 95 columns
Presolve time: 0.00s
Presolve: All rows and columns removed
Iteration    Objective       Primal Inf.    Dual Inf.      Time
       0    0.0000000e+00   0.000000e+00   0.000000e+00      0s

Solved in 0 iterations and 0.00 seconds
Optimal objective  0.000000000e+00
